param set_len = 18;
param target := 161708583;
set values := 33450101, 23746748, 3028282, 15494999, 5318395, 5191414, 24021703, 24678779, 22419142, 1815654, 28645756, 12563877, 16785313, 15804506, 16546433, 25726728, 1370726, 1541006, ;
